HFSDDW
15	6	3
0	61	1	43	2	97
0	42	1	39	2	66
0	32	1	51	2	27
0	21	1	17	2	36
0	35	1	5	2	72
0	14	1	79	2	54
0	24	1	44	2	9
0	29	1	11	2	25
0	87	1	46	2	27
0	95	1	48	2	77
0	88	1	88	2	98
0	65	1	8	2	52
0	82	1	22	2	96
0	73	1	36	2	31
0	72	1	32	2	85
LBCmax: 467
RELDUE
-1	360	4	4
-1	340	1	5
-1	388	3	3
-1	346	4	7
-1	397	9	2
-1	383	3	6
-1	366	6	5
-1	337	1	7
-1	368	6	8
-1	353	4	5
-1	357	3	6
-1	357	7	7
-1	395	2	5
-1	378	7	5
-1	414	4	7
DDW
349	371
337	343
361	415
343	349
381	413
345	421
355	377
327	347
364	372
332	374
321	393
339	375
367	423
374	382
393	435
